&CONTROL
  calculation = 'md',
  prefix = 'silicon',
  pseudo_dir  = '/home/alecrotti/src/qe-7.4.1/pseudo',
  outdir      = './silicon_vcrelax.save'
  dt = 20.0,  ! Passo temporale in unità atomiche
  nstep = 500, ! Numero di passi
  tprnfor = .true.,
  tstress = .true.,
/
&SYSTEM
  ibrav = 2,
  celldm(1) = 10.234422,
  nat = 2,
  ntyp = 1,
  ecutwfc = 55.0,
  nosym = .true.,    ! Disabilita l'uso delle simmetrie
  noinv = .true.,    ! Disabilita l'inversione come operazione di simmetria
/
&ELECTRONS
  conv_thr = 1.0d-6,
/
&IONS
  ion_temperature = 'rescaling',
  tempw = 0.1,  ! Temperatura minima positiva
  ion_dynamics = 'verlet',
/
ATOMIC_SPECIES
  Si 28.0855 Si.vbc.UPF
ATOMIC_POSITIONS (crystal)
  Si 0.00 0.00 0.00
  Si 0.245 0.245 0.245  ! Leggermente compresso lungo (111)
K_POINTS (automatic)
  4 4 4 0 0 0
