&CONTROL
  calculation = 'bands'
  prefix      = 'silicon'
  pseudo_dir  = '/home/alecrotti/src/qe-7.4.1/pseudo'
  outdir      = './out'
  verbosity   = 'high'
/
&SYSTEM
  ibrav       = 2
  celldm(1)   = 10.234422
  nat         = 2
  ntyp        = 1
  ecutwfc     = 55.0
  nbnd        = 16      ! Calcoliamo qualche banda in più per il plot
/
&ELECTRONS
  conv_thr    = 1.0d-8
/
ATOMIC_SPECIES
 Si 28.0855 Si.vbc.UPF
ATOMIC_POSITIONS (crystal)
 Si 0.00 0.00 0.00
 Si 0.25 0.25 0.25
K_POINTS {crystal_b}
10
 0.0000 0.0000 0.0000 40 ! Gamma
 0.5000 0.0000 0.0000 40 ! X
 0.5000 0.2500 0.7500 40 ! W
 0.3750 0.3750 0.7500 40 ! K
 0.0000 0.0000 0.0000 40 ! Gamma
 0.5000 0.5000 0.5000 40 ! L
 0.6250 0.2500 0.6250 40 ! U
 0.5000 0.2500 0.7500 40 ! W
 0.5000 0.5000 0.5000 40 ! L
 0.3750 0.3750 0.7500 40 ! K
