&BANDS
  prefix  = 'silicon'
  outdir  = './out'
  filband = 'si_bands.dat'
/
